(set-logic QF_SLIA)
(declare-fun var0 () String)
(declare-fun var1 () String)
(declare-fun var3 () String)
(declare-fun var5 () String)
(declare-fun var6 () String)
(declare-fun var7 () String)
(declare-fun var8 () String)
(declare-fun var9 () String)
(declare-fun var10 () String)
(declare-fun var11 () String)
(declare-fun var12 () String)
(declare-fun var13 () String)
(declare-fun var14 () String)
(declare-fun var16 () String)
(declare-fun var17 () String)
(declare-fun var18 () String)
(declare-fun var19 () String)
(declare-fun var20 () String)
(declare-fun var21 () String)
(declare-fun var22 () String)
(declare-fun var23 () String)
(declare-fun var24 () String)
(declare-fun var25 () String)
(declare-fun var2 () Int)
(declare-fun var4 () Int)
(declare-fun var15 () Int)
(assert (and (not (> (str.indexof var0 var1 var2) (str.len var3))) (= (<= var4 139) (str.contains var5 var6))))
(assert (not (>= (str.len (str.substr var7 87 0)) (str.len (str.substr var8 87 378)))))
(assert (>= (str.len var5) (str.indexof var9 var10 var4)))
(assert (= (not (str.contains (str.replace var11 var13 var12) (str.replace var5 var14 var12))) (or (< var15 174) (not (< var2 var2)))))
(assert (not (> (str.indexof var16 var17 var4) (str.len var6))))
(assert (not (< (str.indexof (str.++ var12 var5) (str.++ var12 var1) (str.indexof var3 var18 var2)) (str.len (str.replace var6 var19 var5)))))
(assert (<= (str.indexof (str.replace var5 var20 var5) (str.substr var5 0 189) (str.len var3)) (str.indexof (str.replace var5 var21 var5) (str.substr var12 (- 1) 189) (str.indexof var6 var6 var4))))
(assert (= (str.substr (str.at (str.++ var12 var21) (str.indexof var5 var22 var4)) 0 0) (str.substr (str.++ (str.substr var12 0 189) (str.replace var12 var23 var11)) 0 0)))
(assert (and (str.prefixof var5 var5) (>= var4 var4)))
(assert (= (str.indexof (str.replace var6 var25 var5) (str.replace var5 var24 var1) (str.len var5)) (str.len (str.substr var21 0 189))))
(assert (= var7 "TeWobJGbyQcjhScbrWuTDSdz4pJlNWt9NG9AZ8K5spyga51zm866wh6K8Hlyqrasrvte8BVQkhTKunFSe8LLsim2TeWobJGbyQcjhScbrWuTDSdz4pJlNWt9NG9AZ8K5spyga51zm866wh6K8Hlyqrasrvte8BVQkhTKunFSe8LLsim2"))
(assert (= var5 "cS2HsseKfL3wVzbCbahnZqBkrdV4eGoMloyqomILyNVe4eYlUC8UHUN9SS5LskvAKlHYIxPBpTvSrR7xtrK3otioKMlmG5j9W8VbFuf0vLApnAUpB7VrRW9k3OwjqHkkWNGyWH7ggfsm0W1O6W5hChI8BSLAKEeHCERAZOAVYhDFlrinUGOjlaD9MfGLC"))
(assert (= var21 "cS2HsseKfL3wVzbCbahnZqBkrdV4eGoMloyqomILyNVe4eYlUC8UHUN9SS5LskvAKlHYIxPBpTvSrR7xtrK3otioKMlmG5j9W8VbFuf0vLApnAUpB7VrRW9k3OwjqHkkWNGyWH7ggfsm0W1O6W5hChI8BSLAKEeHCERAZOAVYhDFlrinUGOjlaD9MfGLC"))
(assert (= (str.len var5) 189))
(assert (= (str.len var6) 189))
(assert (= (str.len var1) 0))
(check-sat)
